(set-logic QF_SLIA)
(set-option :produce-models true)
(declare-const X String)
; ^((\+)?(\d{2}[-]))?(\d{10}){1}?$
(assert (str.in_re X (re.++ (re.opt (re.++ (re.opt (str.to_re "+")) ((_ re.loop 2 2) (re.range "0" "9")) (str.to_re "-"))) ((_ re.loop 1 1) ((_ re.loop 10 10) (re.range "0" "9"))) (str.to_re "\u{0a}"))))
; /filename\=[a-z0-9]{24}\.exe/H
(assert (str.in_re X (re.++ (str.to_re "/filename=") ((_ re.loop 24 24) (re.union (re.range "a" "z") (re.range "0" "9"))) (str.to_re ".exe/H\u{0a}"))))
(assert (> (str.len X) 10))
(check-sat)
